/*********************************************
 * OPL 12.3 Data
 * Author: Pawel Zielinski
 *********************************************/
n = 6;

 E = {
       <1, 2>,
       <1, 3>,
       <2, 4>,
       <2, 5>,
       <3, 4>,
       <4, 6>,
       <5, 6> 
      };

 c = #[
       <1, 2>:   2,
       <1, 3>:   6,
       <2, 4>:   4,
       <2, 5>:   7,
       <3, 4>:   2,
       <4, 6>:   10,
       <5, 6>:   9
     ]#;

